c read Graph
c width = 157
c time = 70 ms
c width = 13
c time = 168 ms
c width = 12
c time = 263 ms
c width = 11
c time = 2112 ms
c width = 11
c time = 5092 ms
s td 156 12 170
b 1 1 2 18
b 2 2 3 18 19
b 3 15 16 33 34
b 4 3 18 19 35
b 5 15 33 34 51
b 6 120 137 138 155
b 7 136 152 153 169
b 8 120 138 155 156
b 9 136 152 168 169
b 10 3 4 5 21
b 11 3 5 20 21 36 52
b 12 5 20 21 36 38 52 54
b 13 5 21 36 38 52 54 70
b 14 36 52 53 54 70
b 15 5 21 38 52 54 70 86
b 16 52 69 70 86
b 17 5 21 23 38 39 54 70 86
b 18 5 23 38 39 54 57 70 72 73 86
b 19 5 23 39 54 57 70 72 73 86 88
b 20 5 23 39 57 70 72 73 86 88 89
b 21 5 23 39 57 70 73 86 88 89 104
b 22 5 23 39 57 73 86 88 89 104 105
b 23 5 23 39 57 73 86 89 104 105 123 141 159
b 24 5 23 39 57 73 89 105 107 123 141 159
b 25 89 105 106 107 123
b 26 5 23 39 57 73 89 91 107 123 141 159
b 27 73 89 90 91 107
b 28 5 23 39 57 73 91 107 123 125 141 159
b 29 107 123 124 125 141
b 30 5 23 39 57 73 91 107 125 141 143 159
b 31 5 23 39 57 73 91 107 109 125 143 159
b 32 5 23 39 41 57 73 91 109 125 143 159
b 33 23 39 40 41 57
b 34 5 23 41 57 73 91 109 125 127 143 159
b 35 5 23 41 57 73 75 91 109 127 143 159
b 36 57 73 74 75 91
b 37 5 23 41 57 59 75 91 109 127 143 159
b 38 41 57 58 59 75
b 39 5 23 41 59 75 91 93 109 127 143 159
b 40 75 91 92 93 109
b 41 5 23 41 59 75 77 93 109 127 143 159
b 42 5 23 41 59 77 93 109 111 127 143 159
b 43 93 109 110 111 127
b 44 5 23 41 59 77 93 95 111 127 143 159
b 45 5 9 23 25 41 59 77 95 111 127 143 159
b 46 9 25 27 41 43 59 77 95 111 127 143 159
b 47 25 27 41 42 43 59 77 95 111 127 143 159
b 48 9 25 26 27 43
b 49 9 27 43 59 61 77 95 111 127 143 159
b 50 43 59 61 77 95 111 127 143 159
b 51 43 59 60 61 77
b 52 9 27 43 45 61 77 95 111 127 143 159
b 53 27 43 44 45 61
b 54 9 27 45 61 77 95 111 127 143 145 159 163
b 55 9 27 45 61 77 95 111 127 129 145 159 163
b 56 9 27 45 61 77 95 111 129 145 147 159 163
b 57 129 145 146 147 159 163
b 58 9 27 45 61 77 95 111 113 129 147 163
b 59 9 27 45 61 77 79 95 113 129 147 163
b 60 61 77 78 79 95
b 61 9 27 45 61 63 79 95 113 129 147 163
b 62 45 61 62 63 79
b 63 9 27 45 63 79 95 97 113 129 147 163
b 64 79 95 97 113 129 147 163
b 65 9 27 45 63 79 81 97 113 129 147 163
b 66 9 27 45 63 81 97 113 129 131 147 163
b 67 113 129 130 131 147
b 68 63 79 80 81 97
b 69 79 95 96 97 113
b 70 95 111 112 113 129
b 71 111 127 128 129 145
b 72 127 143 145 159 161 163
b 73 145 161 162 163
b 74 127 143 144 145 161
b 75 143 159 160 161
b 76 5 7 9 23 25 41
b 77 7 8 9 25
b 78 7 23 24 25 41
b 79 5 6 7 23
b 80 77 93 94 95 111
b 81 59 75 76 77 93
b 82 109 125 126 127 143
b 83 91 107 108 109 125
b 84 125 141 142 143 159
b 85 86 104 105 123 141 157 159
b 86 141 157 158 159
b 87 86 104 105 123 139 141 157
b 88 86 104 105 121 123 139 157
b 89 86 104 120 121 139 157
b 90 86 103 104 120
b 91 120 121 139 156 157
b 92 120 121 138 139 156
b 93 105 121 122 123 139
b 94 123 139 140 141 157
b 95 70 86 87 88 104
b 96 54 70 71 72 88
b 97 38 39 54 56 57 72 73
b 98 38 54 55 56 72
b 99 5 21 22 23 39
b 100 20 36 37 38 54
b 101 3 20 35 36 52
b 102 3 19 20 35 36
b 103 9 10 11 27
b 104 147 163 164 165
b 105 11 12 13 29
b 106 11 27 28 29 45
b 107 13 31 48 50 66 68 84
b 108 81 97 98 99 115
b 109 115 131 132 133 149
b 110 131 147 148 149 165
b 111 9 11 13 27 29 45
b 112 13 29 30 31 47
b 113 29 45 46 47 63
b 114 47 63 64 65 81
b 115 13 31 48 66 68 84 102
b 116 65 81 82 83 99
b 117 83 99 100 101 117
b 118 101 102 117 118 133 149 165
b 119 9 27 45 63 81 97 113 115 131 147 163
b 120 9 13 27 29 31 45 47 63
b 121 13 31 47 48 65 66 84 102
b 122 13 31 47 65 66 83 84 102
b 123 13 31 47 65 83 84 101 102
b 124 9 27 45 63 81 97 99 115 131 147 163
b 125 9 27 45 63 81 99 115 131 147 163 165
b 126 9 27 45 63 81 99 115 131 147 149 165
b 127 9 27 45 63 81 99 115 131 133 149 165
b 128 9 27 45 63 81 99 115 117 133 149 165
b 129 13 31 47 63 65 81 83 99 101 102
b 130 13 31 47 63 81 83 99 101 102 117
b 131 9 13 27 31 45 47 63 81 99 101 102 117
b 132 9 27 45 63 81 99 101 102 117 133 149 165
b 133 101 102 117 133 149 165
b 134 68 84 85 102
b 135 97 113 114 115 131
b 136 102 117 118 133 149 165 167
b 137 149 165 166 167
b 138 102 117 118 133 149 151 167
b 139 133 149 150 151 167
b 140 102 117 118 133 135 151 167
b 141 102 118 135 136 151 167
b 142 102 118 119 136
b 143 135 136 151 167 168
b 144 135 136 151 152 168
b 145 117 133 134 135 151
b 146 99 115 116 117 133
b 147 50 66 67 68 84
b 148 13 31 32 48 50 66 68
b 149 13 15 31 32 50 68
b 150 13 14 15 31
b 151 15 32 50 51 68
b 152 15 32 33 50 51
b 153 32 48 49 50 66
b 154 153 169 170
b 155 137 154 155
b 156 16 17 34
1 2
2 4
3 156
3 5
4 102
5 152
6 155
6 8
7 154
7 9
8 92
9 144
10 11
11 101
11 12
12 100
12 13
13 15
13 14
15 17
15 16
17 99
17 18
18 97
18 19
19 96
19 20
20 21
21 95
21 22
22 23
23 85
23 24
24 25
24 26
26 27
26 28
28 30
28 29
30 84
30 31
31 83
31 32
32 34
32 33
34 82
34 35
35 37
35 36
37 39
37 38
39 41
39 40
41 81
41 42
42 44
42 43
44 80
44 45
45 76
45 46
46 49
46 48
46 47
49 52
49 51
49 50
52 54
52 53
54 72
54 55
55 71
55 56
56 58
56 57
58 70
58 59
59 61
59 60
61 63
61 62
63 69
63 65
63 64
65 68
65 66
66 119
66 67
72 75
72 74
72 73
76 77
76 78
76 79
85 87
85 86
87 94
87 88
88 93
88 89
89 90
89 91
91 92
97 98
101 102
103 111
104 125
105 111
106 111
107 147
107 148
107 115
108 124
109 127
110 126
111 120
112 120
113 120
114 129
115 134
115 121
116 129
117 130
118 136
118 133
119 135
119 124
120 131
121 122
122 123
123 129
124 125
125 126
126 127
127 128
128 146
128 132
129 130
130 131
131 132
132 133
136 138
136 137
138 139
138 140
140 145
140 141
141 142
141 143
143 144
148 153
148 149
149 150
149 151
151 152
